c This is an instance of the heur track of PACE 2020 Challenge, see https://pacechallenge.org/2020/ 
c TYPE: biology 
c ORIGIN: www.genome.jp/kegg/ 
c DESCRIPTION: This is a graph derived from a biological pathway map. The nodes are genes (also representing their associated proteins), enzymes, or chemical compounds, and there is an edge between two nodes if they influence each other (such as a gene modifying the expression of another gene) or take part in a common chemical reaction. This graph is a connected part of the map "ppp01110 Biosynthesis of secondary metabolites - Physcomitrium patens". 
p tdp 313 386
299 300
299 298
300 301
167 169
167 168
169 168
84 230
84 86
84 306
84 89
84 2
84 85
84 137
230 231
230 232
245 246
245 248
245 247
245 244
246 248
246 247
168 171
168 170
168 173
168 172
171 170
297 298
297 292
297 296
298 292
195 196
195 194
195 280
196 197
205 206
205 204
206 161
236 238
236 3
236 237
238 239
238 237
194 251
194 145
194 248
194 193
194 250
194 7
190 191
190 189
191 192
4 5
4 3
4 2
5 6
177 178
177 176
178 179
3 189
3 210
3 97
3 2
3 16
3 98
3 12
3 187
189 187
158 159
158 157
159 160
159 162
55 56
55 54
55 139
56 54
256 257
256 255
257 258
33 34
33 24
33 21
33 35
33 36
33 32
34 39
34 35
34 24
34 21
34 13
179 180
224 225
224 110
224 228
225 226
226 227
24 28
24 35
24 21
24 25
24 284
24 23
57 60
57 58
57 48
60 61
58 59
58 61
154 163
154 155
154 153
163 164
163 309
160 161
20 21
20 19
21 35
21 22
21 36
21 23
21 103
21 12
108 140
108 262
108 234
108 102
142 143
142 141
143 144
252 253
252 183
28 29
28 30
28 25
231 232
122 123
122 121
123 124
37 213
37 36
37 120
213 214
129 130
129 8
129 128
130 131
215 216
215 214
216 217
110 181
110 109
110 182
217 218
218 219
88 141
88 85
88 138
88 87
42 43
42 41
43 44
134 135
134 133
144 145
36 35
36 32
243 244
243 19
244 19
207 208
207 161
208 209
15 19
15 13
19 249
102 234
102 262
102 109
102 111
102 101
102 261
234 111
234 170
200 201
200 199
304 305
304 303
304 26
248 247
248 1
248 7
248 6
248 145
248 193
248 250
54 53
263 264
263 22
263 311
271 272
271 270
202 203
202 312
202 161
203 204
265 266
265 270
265 268
265 269
265 311
269 270
269 268
270 273
161 162
69 70
69 61
70 66
70 65
259 260
259 255
6 7
6 11
275 276
275 274
276 277
288 289
288 287
289 290
112 113
112 111
113 114
39 40
39 13
239 240
262 107
240 241
241 242
111 235
111 109
66 67
66 74
66 65
66 72
67 68
67 75
9 87
9 8
9 86
9 1
87 86
87 85
32 292
32 31
124 125
125 126
86 85
222 223
222 221
22 23
281 282
281 193
293 294
294 295
121 120
97 98
97 99
74 75
74 73
68 76
76 75
76 77
109 119
109 118
109 255
109 170
105 106
105 104
106 107
7 11
7 145
7 10
52 53
52 51
164 165
187 233
187 186
187 188
284 285
285 286
150 151
150 149
151 152
151 166
155 156
156 157
249 250
145 146
91 92
91 93
92 90
131 211
211 212
309 310
147 148
147 146
148 149
8 10
8 128
81 83
81 80
12 13
12 184
12 103
12 193
12 14
13 2
152 307
152 153
184 185
306 137
186 185
49 82
49 50
49 283
49 80
25 26
25 27
181 182
197 198
198 199
29 27
103 104
303 302
30 31
31 38
16 17
17 18
193 250
296 295
2 1
183 182
51 45
38 136
228 229
307 308
116 117
116 115
117 313
65 73
268 267
99 100
100 101
90 89
90 127
273 278
273 274
61 95
61 62
61 71
61 78
62 63
63 64
45 174
45 44
45 46
174 175
286 287
40 41
132 133
132 94
26 302
138 254
175 176
93 94
46 283
46 47
95 96
47 48
173 172
115 114
280 127
278 279
78 79
72 71
220 221
220 219
290 291
